100
-82 -7 -73 62 4 50 78 52 -80 31 1 -34 53 43 33 -57 -67 -90 -29 94 45 61 -16 -66 77 92 -51 -8 -85 -36 77 98 4 -52 -66 64 46 -50 81 -71 26 -45 1 64 -84 62 -34 68 24 -84 -41 -40 -65 -55 12 -18 -56 -79 61 33 -86 -21 -64 -20 1 -66 59 28 84 -98 -5 82 18 -88 25 11 -42 -20 -71 -67 99 18 -3 8 98 92 -31 18 14 -67 34 -7 37 -27 3 -83 -10 -87 23 91
82 7 73 -62 -4 -50 -78 -52 80 -31 -1 34 -53 -43 -33 57 67 90 29 -94 -45 -61 16 66 -77 -92 51 8 85 36 -77 -98 -4 52 66 -64 -46 50 -81 71 -26 45 -1 -64 84 -62 34 -68 -24 84 41 40 65 55 -12 18 56 79 -61 -33 86 21 64 20 -1 66 -59 -28 -84 98 5 -82 -18 88 -25 -11 42 20 71 67 -99 -18 3 -8 -98 -92 31 -18 -14 67 -34 7 -37 27 -3 83 10 87 -23 -91
